p cnf 555 2781
e 555 1 554 0
a 165 0
e 172 553 126 125 124 123 122 121 120 119 118 117 116 115 114 113 112 111 110 109 108 107 106 105 104 103 102 101 100 99 98 97 96 95 94 93 92 91 90 89 88 87 86 85 84 83 82 81 80 79 78 77 76 75 74 73 72 71 70 69 68 67 66 65 64 63 62 61 60 59 58 57 56 55 54 53 52 51 50 49 48 47 46 45 44 43 42 41 40 39 38 37 36 35 34 33 32 31 30 29 28 27 26 25 24 23 22 21 20 19 18 17 16 15 14 13 12 11 10 9 8 7 6 5 4 3 2 307 522 523 524 525 526 527 528 529 530 531 532 533 534 535 536 537 538 539 540 541 542 543 544 545 546 547 548 549 550 551 552 0
a 166 167 168 169 170 171 0
e 354 521 164 163 162 161 160 159 158 157 156 155 154 153 152 151 150 149 148 147 146 145 144 143 142 141 140 139 138 137 136 135 134 133 132 131 130 129 128 127 357 360 363 366 369 372 375 378 381 384 387 390 393 396 399 402 405 408 411 413 415 417 419 421 423 425 427 429 431 433 435 437 439 441 443 445 447 449 451 453 455 457 459 461 463 465 467 469 471 473 475 477 479 481 483 485 487 489 491 493 495 497 499 501 502 503 504 505 506 507 508 509 510 511 512 513 514 515 516 517 518 519 520 500 498 496 494 492 490 488 486 484 482 480 478 476 474 472 470 468 466 464 462 460 458 456 454 452 450 448 446 444 442 440 438 436 434 432 430 428 426 424 422 420 418 416 414 412 410 409 407 406 404 403 401 400 398 397 395 394 392 391 389 388 386 385 383 382 380 379 377 376 374 373 371 370 368 367 365 364 362 361 359 358 356 355 308 309 310 311 312 313 314 315 316 317 318 319 320 321 322 323 324 325 326 327 328 329 330 331 332 333 334 335 336 337 338 339 340 341 342 343 344 345 346 347 348 349 350 351 352 353 306 173 174 175 176 177 178 179 180 181 182 183 184 185 186 187 188 189 190 191 192 193 194 195 196 197 198 199 200 201 202 203 204 205 206 207 208 209 210 211 212 213 214 215 216 217 218 219 220 221 222 223 224 225 226 227 228 229 230 231 232 233 234 235 236 237 238 239 240 241 242 243 244 245 246 247 248 249 250 251 252 253 254 255 256 257 258 259 260 261 262 263 264 265 266 267 268 269 270 271 272 273 274 275 276 277 278 279 280 281 282 283 284 285 286 287 288 289 290 291 292 293 294 295 296 297 298 299 300 301 302 303 304 305 0
555 0
555 -554 -1 0
554 -555 0
1 -555 0
172 553 -554 0
554 -172 0
554 -553 0
-172 -165 -1 0
165 172 0
1 172 0
553 -307 -522 -523 -524 -525 -526 -527 -528 -529 -530 -531 -532 -533 -534 -535 -536 -537 -538 -539 -540 -541 -542 -543 -544 -545 -546 -547 -548 -549 -550 -551 -552 0
307 -553 0
522 -553 0
523 -553 0
524 -553 0
525 -553 0
526 -553 0
527 -553 0
528 -553 0
529 -553 0
530 -553 0
531 -553 0
532 -553 0
533 -553 0
534 -553 0
535 -553 0
536 -553 0
537 -553 0
538 -553 0
539 -553 0
540 -553 0
541 -553 0
542 -553 0
543 -553 0
544 -553 0
545 -553 0
546 -553 0
547 -553 0
548 -553 0
549 -553 0
550 -553 0
551 -553 0
552 -553 0
306 -307 -165 0
165 307 0
307 -306 0
306 -173 -174 -175 -176 -177 -47 -178 -179 -21 -180 -181 -22 -23 -182 -183 -26 -27 -28 -184 -185 -34 -35 -36 -37 -186 -187 -188 -189 -190 -191 -192 -193 -194 -195 -196 -197 -24 -198 -199 -200 -29 -30 -201 -202 -203 -38 -39 -40 -204 -205 -206 -207 -208 -209 -210 -211 -212 -25 -213 -214 -215 -31 -32 -216 -217 -218 -41 -42 -43 -219 -220 -221 -222 -223 -224 -225 -226 -227 -228 -229 -230 -231 -232 -33 -233 -234 -235 -236 -44 -45 -237 -238 -239 -240 -241 -242 -243 -244 -245 -246 -247 -248 -249 -250 -251 -252 -253 -254 -255 -256 -46 -257 -258 -259 -260 -261 -262 -263 -264 -265 -266 -267 -268 -269 -270 -271 -272 -273 -274 -275 -276 -277 -278 -279 -280 -281 -282 -283 -284 -285 -286 -287 -288 -289 -290 -291 -292 -293 -294 -295 -296 -297 -298 -299 -300 -301 -302 -303 -304 -305 0
173 -306 0
174 -306 0
175 -306 0
176 -306 0
177 -306 0
47 -306 0
178 -306 0
179 -306 0
21 -306 0
47 -306 0
180 -306 0
181 -306 0
22 -306 0
47 -306 0
23 -306 0
182 -306 0
183 -306 0
26 -306 0
47 -306 0
27 -306 0
28 -306 0
184 -306 0
185 -306 0
34 -306 0
47 -306 0
35 -306 0
36 -306 0
37 -306 0
186 -306 0
187 -306 0
188 -306 0
189 -306 0
190 -306 0
191 -306 0
192 -306 0
193 -306 0
194 -306 0
47 -306 0
195 -306 0
196 -306 0
197 -306 0
47 -306 0
24 -306 0
198 -306 0
199 -306 0
200 -306 0
47 -306 0
29 -306 0
30 -306 0
201 -306 0
202 -306 0
203 -306 0
47 -306 0
38 -306 0
39 -306 0
40 -306 0
204 -306 0
205 -306 0
206 -306 0
207 -306 0
208 -306 0
209 -306 0
210 -306 0
211 -306 0
212 -306 0
25 -306 0
213 -306 0
214 -306 0
215 -306 0
31 -306 0
32 -306 0
216 -306 0
217 -306 0
218 -306 0
41 -306 0
42 -306 0
43 -306 0
219 -306 0
220 -306 0
221 -306 0
222 -306 0
223 -306 0
224 -306 0
225 -306 0
226 -306 0
227 -306 0
228 -306 0
229 -306 0
230 -306 0
231 -306 0
232 -306 0
33 -306 0
233 -306 0
234 -306 0
235 -306 0
236 -306 0
44 -306 0
45 -306 0
237 -306 0
238 -306 0
239 -306 0
240 -306 0
241 -306 0
242 -306 0
243 -306 0
244 -306 0
245 -306 0
246 -306 0
247 -306 0
248 -306 0
249 -306 0
250 -306 0
251 -306 0
252 -306 0
253 -306 0
254 -306 0
255 -306 0
256 -306 0
46 -306 0
257 -306 0
258 -306 0
259 -306 0
260 -306 0
261 -306 0
262 -306 0
263 -306 0
264 -306 0
265 -306 0
266 -306 0
267 -306 0
268 -306 0
269 -306 0
270 -306 0
271 -306 0
272 -306 0
273 -306 0
274 -306 0
275 -306 0
276 -306 0
277 -306 0
278 -306 0
279 -306 0
280 -306 0
281 -306 0
282 -306 0
283 -306 0
284 -306 0
285 -306 0
286 -306 0
287 -306 0
288 -306 0
289 -306 0
290 -306 0
291 -306 0
292 -306 0
293 -306 0
294 -306 0
295 -306 0
296 -306 0
297 -306 0
298 -306 0
299 -306 0
300 -306 0
301 -306 0
302 -306 0
303 -306 0
304 -306 0
305 -306 0
74 67 -173 0
173 -74 0
173 -67 0
2 67 -174 0
174 -2 0
174 -67 0
2 74 -175 0
175 -2 0
175 -74 0
47 67 -176 0
176 -47 0
176 -67 0
47 74 -177 0
177 -47 0
177 -74 0
3 67 -178 0
178 -3 0
178 -67 0
3 74 -179 0
179 -3 0
179 -74 0
6 67 -180 0
180 -6 0
180 -67 0
6 74 -181 0
181 -6 0
181 -74 0
10 67 -182 0
182 -10 0
182 -67 0
10 74 -183 0
183 -10 0
183 -74 0
15 67 -184 0
184 -15 0
184 -67 0
15 74 -185 0
185 -15 0
185 -74 0
75 68 -186 0
186 -75 0
186 -68 0
81 68 -187 0
187 -81 0
187 -68 0
81 75 -188 0
188 -81 0
188 -75 0
47 68 -189 0
189 -47 0
189 -68 0
47 75 -190 0
190 -47 0
190 -75 0
47 81 -191 0
191 -47 0
191 -81 0
4 68 -192 0
192 -4 0
192 -68 0
4 75 -193 0
193 -4 0
193 -75 0
4 81 -194 0
194 -4 0
194 -81 0
7 68 -195 0
195 -7 0
195 -68 0
7 75 -196 0
196 -7 0
196 -75 0
7 81 -197 0
197 -7 0
197 -81 0
11 68 -198 0
198 -11 0
198 -68 0
11 75 -199 0
199 -11 0
199 -75 0
11 81 -200 0
200 -11 0
200 -81 0
16 68 -201 0
201 -16 0
201 -68 0
16 75 -202 0
202 -16 0
202 -75 0
16 81 -203 0
203 -16 0
203 -81 0
76 69 -204 0
204 -76 0
204 -69 0
82 69 -205 0
205 -82 0
205 -69 0
82 76 -206 0
206 -82 0
206 -76 0
5 69 -207 0
207 -5 0
207 -69 0
5 76 -208 0
208 -5 0
208 -76 0
5 82 -209 0
209 -5 0
209 -82 0
8 69 -210 0
210 -8 0
210 -69 0
8 76 -211 0
211 -8 0
211 -76 0
8 82 -212 0
212 -8 0
212 -82 0
12 69 -213 0
213 -12 0
213 -69 0
12 76 -214 0
214 -12 0
214 -76 0
12 82 -215 0
215 -12 0
215 -82 0
17 69 -216 0
216 -17 0
216 -69 0
17 76 -217 0
217 -17 0
217 -76 0
17 82 -218 0
218 -17 0
218 -82 0
77 70 -219 0
219 -77 0
219 -70 0
83 70 -220 0
220 -83 0
220 -70 0
83 77 -221 0
221 -83 0
221 -77 0
87 70 -222 0
222 -87 0
222 -70 0
87 77 -223 0
223 -87 0
223 -77 0
87 83 -224 0
224 -87 0
224 -83 0
9 70 -225 0
225 -9 0
225 -70 0
9 77 -226 0
226 -9 0
226 -77 0
9 83 -227 0
227 -9 0
227 -83 0
9 87 -228 0
228 -9 0
228 -87 0
13 70 -229 0
229 -13 0
229 -70 0
13 77 -230 0
230 -13 0
230 -77 0
13 83 -231 0
231 -13 0
231 -83 0
13 87 -232 0
232 -13 0
232 -87 0
18 70 -233 0
233 -18 0
233 -70 0
18 77 -234 0
234 -18 0
234 -77 0
18 83 -235 0
235 -18 0
235 -83 0
18 87 -236 0
236 -18 0
236 -87 0
78 71 -237 0
237 -78 0
237 -71 0
84 71 -238 0
238 -84 0
238 -71 0
84 78 -239 0
239 -84 0
239 -78 0
88 71 -240 0
240 -88 0
240 -71 0
88 78 -241 0
241 -88 0
241 -78 0
88 84 -242 0
242 -88 0
242 -84 0
91 71 -243 0
243 -91 0
243 -71 0
91 78 -244 0
244 -91 0
244 -78 0
91 84 -245 0
245 -91 0
245 -84 0
91 88 -246 0
246 -91 0
246 -88 0
14 71 -247 0
247 -14 0
247 -71 0
14 78 -248 0
248 -14 0
248 -78 0
14 84 -249 0
249 -14 0
249 -84 0
14 88 -250 0
250 -14 0
250 -88 0
14 91 -251 0
251 -14 0
251 -91 0
19 71 -252 0
252 -19 0
252 -71 0
19 78 -253 0
253 -19 0
253 -78 0
19 84 -254 0
254 -19 0
254 -84 0
19 88 -255 0
255 -19 0
255 -88 0
19 91 -256 0
256 -19 0
256 -91 0
79 72 -257 0
257 -79 0
257 -72 0
85 72 -258 0
258 -85 0
258 -72 0
85 79 -259 0
259 -85 0
259 -79 0
89 72 -260 0
260 -89 0
260 -72 0
89 79 -261 0
261 -89 0
261 -79 0
89 85 -262 0
262 -89 0
262 -85 0
92 72 -263 0
263 -92 0
263 -72 0
92 79 -264 0
264 -92 0
264 -79 0
92 85 -265 0
265 -92 0
265 -85 0
92 89 -266 0
266 -92 0
266 -89 0
94 72 -267 0
267 -94 0
267 -72 0
94 79 -268 0
268 -94 0
268 -79 0
94 85 -269 0
269 -94 0
269 -85 0
94 89 -270 0
270 -94 0
270 -89 0
94 92 -271 0
271 -94 0
271 -92 0
20 72 -272 0
272 -20 0
272 -72 0
20 79 -273 0
273 -20 0
273 -79 0
20 85 -274 0
274 -20 0
274 -85 0
20 89 -275 0
275 -20 0
275 -89 0
20 92 -276 0
276 -20 0
276 -92 0
20 94 -277 0
277 -20 0
277 -94 0
80 73 -278 0
278 -80 0
278 -73 0
86 73 -279 0
279 -86 0
279 -73 0
86 80 -280 0
280 -86 0
280 -80 0
90 73 -281 0
281 -90 0
281 -73 0
90 80 -282 0
282 -90 0
282 -80 0
90 86 -283 0
283 -90 0
283 -86 0
93 73 -284 0
284 -93 0
284 -73 0
93 80 -285 0
285 -93 0
285 -80 0
93 86 -286 0
286 -93 0
286 -86 0
93 90 -287 0
287 -93 0
287 -90 0
95 73 -288 0
288 -95 0
288 -73 0
95 80 -289 0
289 -95 0
289 -80 0
95 86 -290 0
290 -95 0
290 -86 0
95 90 -291 0
291 -95 0
291 -90 0
95 93 -292 0
292 -95 0
292 -93 0
96 73 -293 0
293 -96 0
293 -73 0
96 80 -294 0
294 -96 0
294 -80 0
96 86 -295 0
295 -96 0
295 -86 0
96 90 -296 0
296 -96 0
296 -90 0
96 95 -297 0
297 -96 0
297 -95 0
96 93 -298 0
298 -96 0
298 -93 0
97 98 99 100 101 103 102 -299 0
299 -97 0
299 -98 0
299 -99 0
299 -100 0
299 -101 0
299 -103 0
299 -102 0
104 105 106 107 108 110 109 -300 0
300 -104 0
300 -105 0
300 -106 0
300 -107 0
300 -108 0
300 -110 0
300 -109 0
48 111 112 113 114 116 115 -301 0
301 -48 0
301 -111 0
301 -112 0
301 -113 0
301 -114 0
301 -116 0
301 -115 0
49 50 51 117 118 120 119 -302 0
302 -49 0
302 -50 0
302 -51 0
302 -117 0
302 -118 0
302 -120 0
302 -119 0
52 53 54 55 121 123 122 -303 0
303 -52 0
303 -53 0
303 -54 0
303 -55 0
303 -121 0
303 -123 0
303 -122 0
61 62 63 64 65 126 66 -304 0
304 -61 0
304 -62 0
304 -63 0
304 -64 0
304 -65 0
304 -126 0
304 -66 0
56 57 58 59 60 125 124 -305 0
305 -56 0
305 -57 0
305 -58 0
305 -59 0
305 -60 0
305 -125 0
305 -124 0
354 521 -522 0
522 -354 0
522 -521 0
354 -308 -309 -310 -311 -312 -313 -314 -315 -316 -317 -318 -319 -320 -321 -322 -323 -324 -325 -326 -327 -328 -329 -330 -331 -332 -333 -334 -335 -336 -337 -338 -339 -340 -341 -342 -343 -344 -345 -346 -347 -348 -349 -350 -351 -352 -353 0
308 -354 0
309 -354 0
310 -354 0
311 -354 0
312 -354 0
313 -354 0
314 -354 0
315 -354 0
316 -354 0
317 -354 0
318 -354 0
319 -354 0
320 -354 0
321 -354 0
322 -354 0
323 -354 0
324 -354 0
325 -354 0
326 -354 0
327 -354 0
328 -354 0
329 -354 0
330 -354 0
331 -354 0
332 -354 0
333 -354 0
334 -354 0
335 -354 0
336 -354 0
337 -354 0
338 -354 0
339 -354 0
340 -354 0
341 -354 0
342 -354 0
343 -354 0
344 -354 0
345 -354 0
346 -354 0
347 -354 0
348 -354 0
349 -354 0
350 -354 0
351 -354 0
352 -354 0
353 -354 0
166 168 169 171 -308 -47 -167 -170 0
47 308 0
308 -166 0
167 308 0
308 -168 0
308 -169 0
170 308 0
308 -171 0
168 169 171 -309 -46 -166 -167 -170 0
46 309 0
166 309 0
167 309 0
309 -168 0
309 -169 0
170 309 0
309 -171 0
166 167 169 171 -310 -45 -168 -170 0
45 310 0
310 -166 0
310 -167 0
168 310 0
310 -169 0
170 310 0
310 -171 0
167 169 171 -311 -44 -166 -168 -170 0
44 311 0
166 311 0
311 -167 0
168 311 0
311 -169 0
170 311 0
311 -171 0
166 169 171 -312 -43 -167 -168 -170 0
43 312 0
312 -166 0
167 312 0
168 312 0
312 -169 0
170 312 0
312 -171 0
169 171 -313 -42 -166 -167 -168 -170 0
42 313 0
166 313 0
167 313 0
168 313 0
313 -169 0
170 313 0
313 -171 0
166 167 168 171 -314 -41 -169 -170 0
41 314 0
314 -166 0
314 -167 0
314 -168 0
169 314 0
170 314 0
314 -171 0
167 168 171 -315 -40 -166 -169 -170 0
40 315 0
166 315 0
315 -167 0
315 -168 0
169 315 0
170 315 0
315 -171 0
166 168 171 -316 -39 -167 -169 -170 0
39 316 0
316 -166 0
167 316 0
316 -168 0
169 316 0
170 316 0
316 -171 0
168 171 -317 -38 -166 -167 -169 -170 0
38 317 0
166 317 0
167 317 0
317 -168 0
169 317 0
170 317 0
317 -171 0
166 167 171 -318 -37 -168 -169 -170 0
37 318 0
318 -166 0
318 -167 0
168 318 0
169 318 0
170 318 0
318 -171 0
167 171 -319 -36 -166 -168 -169 -170 0
36 319 0
166 319 0
319 -167 0
168 319 0
169 319 0
170 319 0
319 -171 0
166 171 -320 -35 -167 -168 -169 -170 0
35 320 0
320 -166 0
167 320 0
168 320 0
169 320 0
170 320 0
320 -171 0
171 -321 -34 -166 -167 -168 -169 -170 0
34 321 0
166 321 0
167 321 0
168 321 0
169 321 0
170 321 0
321 -171 0
166 167 168 169 170 -322 -33 -171 0
33 322 0
322 -166 0
322 -167 0
322 -168 0
322 -169 0
322 -170 0
171 322 0
167 168 169 170 -323 -32 -166 -171 0
32 323 0
166 323 0
323 -167 0
323 -168 0
323 -169 0
323 -170 0
171 323 0
166 168 169 170 -324 -31 -167 -171 0
31 324 0
324 -166 0
167 324 0
324 -168 0
324 -169 0
324 -170 0
171 324 0
168 169 170 -325 -30 -166 -167 -171 0
30 325 0
166 325 0
167 325 0
325 -168 0
325 -169 0
325 -170 0
171 325 0
166 167 169 170 -326 -29 -168 -171 0
29 326 0
326 -166 0
326 -167 0
168 326 0
326 -169 0
326 -170 0
171 326 0
167 169 170 -327 -28 -166 -168 -171 0
28 327 0
166 327 0
327 -167 0
168 327 0
327 -169 0
327 -170 0
171 327 0
166 169 170 -328 -27 -167 -168 -171 0
27 328 0
328 -166 0
167 328 0
168 328 0
328 -169 0
328 -170 0
171 328 0
169 170 -329 -26 -166 -167 -168 -171 0
26 329 0
166 329 0
167 329 0
168 329 0
329 -169 0
329 -170 0
171 329 0
166 167 168 170 -330 -25 -169 -171 0
25 330 0
330 -166 0
330 -167 0
330 -168 0
169 330 0
330 -170 0
171 330 0
167 168 170 -331 -24 -166 -169 -171 0
24 331 0
166 331 0
331 -167 0
331 -168 0
169 331 0
331 -170 0
171 331 0
166 168 170 -332 -23 -167 -169 -171 0
23 332 0
332 -166 0
167 332 0
332 -168 0
169 332 0
332 -170 0
171 332 0
168 170 -333 -22 -166 -167 -169 -171 0
22 333 0
166 333 0
167 333 0
333 -168 0
169 333 0
333 -170 0
171 333 0
166 167 170 -334 -21 -168 -169 -171 0
21 334 0
334 -166 0
334 -167 0
168 334 0
169 334 0
334 -170 0
171 334 0
167 170 -335 -20 -166 -168 -169 -171 0
20 335 0
166 335 0
335 -167 0
168 335 0
169 335 0
335 -170 0
171 335 0
166 170 -336 -19 -167 -168 -169 -171 0
19 336 0
336 -166 0
167 336 0
168 336 0
169 336 0
336 -170 0
171 336 0
170 -337 -18 -166 -167 -168 -169 -171 0
18 337 0
166 337 0
167 337 0
168 337 0
169 337 0
337 -170 0
171 337 0
166 167 168 169 -338 -17 -170 -171 0
17 338 0
338 -166 0
338 -167 0
338 -168 0
338 -169 0
170 338 0
171 338 0
167 168 169 -339 -16 -166 -170 -171 0
16 339 0
166 339 0
339 -167 0
339 -168 0
339 -169 0
170 339 0
171 339 0
166 168 169 -340 -15 -167 -170 -171 0
15 340 0
340 -166 0
167 340 0
340 -168 0
340 -169 0
170 340 0
171 340 0
168 169 -341 -14 -166 -167 -170 -171 0
14 341 0
166 341 0
167 341 0
341 -168 0
341 -169 0
170 341 0
171 341 0
166 167 169 -342 -13 -168 -170 -171 0
13 342 0
342 -166 0
342 -167 0
168 342 0
342 -169 0
170 342 0
171 342 0
167 169 -343 -12 -166 -168 -170 -171 0
12 343 0
166 343 0
343 -167 0
168 343 0
343 -169 0
170 343 0
171 343 0
166 169 -344 -11 -167 -168 -170 -171 0
11 344 0
344 -166 0
167 344 0
168 344 0
344 -169 0
170 344 0
171 344 0
169 -345 -10 -166 -167 -168 -170 -171 0
10 345 0
166 345 0
167 345 0
168 345 0
345 -169 0
170 345 0
171 345 0
166 167 168 -346 -9 -169 -170 -171 0
9 346 0
346 -166 0
346 -167 0
346 -168 0
169 346 0
170 346 0
171 346 0
167 168 -347 -8 -166 -169 -170 -171 0
8 347 0
166 347 0
347 -167 0
347 -168 0
169 347 0
170 347 0
171 347 0
166 168 -348 -7 -167 -169 -170 -171 0
7 348 0
348 -166 0
167 348 0
348 -168 0
169 348 0
170 348 0
171 348 0
168 -349 -6 -166 -167 -169 -170 -171 0
6 349 0
166 349 0
167 349 0
349 -168 0
169 349 0
170 349 0
171 349 0
166 167 -350 -5 -168 -169 -170 -171 0
5 350 0
350 -166 0
350 -167 0
168 350 0
169 350 0
170 350 0
171 350 0
167 -351 -4 -166 -168 -169 -170 -171 0
4 351 0
166 351 0
351 -167 0
168 351 0
169 351 0
170 351 0
171 351 0
166 -352 -3 -167 -168 -169 -170 -171 0
3 352 0
352 -166 0
167 352 0
168 352 0
169 352 0
170 352 0
171 352 0
-353 -2 -166 -167 -168 -169 -170 -171 0
2 353 0
166 353 0
167 353 0
168 353 0
169 353 0
170 353 0
171 353 0
521 -357 -360 -363 -366 -369 -372 -375 -378 -381 -384 -387 -390 -393 -396 -399 -402 -405 -408 -411 -413 -415 -417 -419 -421 -423 -425 -427 -429 -431 -433 -435 -437 -439 -441 -443 -445 -447 -449 -451 -453 -455 -457 -459 -461 -463 -465 -467 -469 -471 -473 -475 -477 -479 -481 -483 -485 -487 -489 -491 -493 -495 -497 -499 -501 -502 -503 -504 -505 -506 -507 -508 -509 -510 -511 -512 -513 -514 -515 -516 -517 -518 -519 -520 0
357 -521 0
360 -521 0
363 -521 0
366 -521 0
369 -521 0
372 -521 0
375 -521 0
378 -521 0
381 -521 0
384 -521 0
387 -521 0
390 -521 0
393 -521 0
396 -521 0
399 -521 0
402 -521 0
405 -521 0
408 -521 0
411 -521 0
413 -521 0
415 -521 0
417 -521 0
419 -521 0
421 -521 0
423 -521 0
425 -521 0
427 -521 0
429 -521 0
431 -521 0
433 -521 0
435 -521 0
437 -521 0
439 -521 0
441 -521 0
443 -521 0
445 -521 0
447 -521 0
449 -521 0
451 -521 0
453 -521 0
455 -521 0
457 -521 0
459 -521 0
461 -521 0
463 -521 0
465 -521 0
467 -521 0
469 -521 0
471 -521 0
473 -521 0
475 -521 0
477 -521 0
479 -521 0
481 -521 0
483 -521 0
485 -521 0
487 -521 0
489 -521 0
491 -521 0
493 -521 0
495 -521 0
497 -521 0
499 -521 0
501 -521 0
502 -521 0
503 -521 0
504 -521 0
505 -521 0
506 -521 0
507 -521 0
508 -521 0
509 -521 0
510 -521 0
511 -521 0
512 -521 0
513 -521 0
514 -521 0
515 -521 0
516 -521 0
517 -521 0
518 -521 0
519 -521 0
520 -521 0
356 164 -357 0
357 -356 0
357 -164 0
355 -356 -66 0
66 356 0
356 -355 0
355 47 46 45 44 43 42 41 40 39 38 37 36 35 34 33 32 31 30 29 28 27 26 25 24 23 22 21 20 19 18 17 16 15 14 13 12 11 10 9 8 7 6 5 4 3 2 0
-47 -355 0
-46 -355 0
-45 -355 0
-44 -355 0
-43 -355 0
-42 -355 0
-41 -355 0
-40 -355 0
-39 -355 0
-38 -355 0
-37 -355 0
-36 -355 0
-35 -355 0
-34 -355 0
-33 -355 0
-32 -355 0
-31 -355 0
-30 -355 0
-29 -355 0
-28 -355 0
-27 -355 0
-26 -355 0
-25 -355 0
-24 -355 0
-23 -355 0
-22 -355 0
-21 -355 0
-20 -355 0
-19 -355 0
-18 -355 0
-17 -355 0
-16 -355 0
-15 -355 0
-14 -355 0
-13 -355 0
-12 -355 0
-11 -355 0
-10 -355 0
-9 -355 0
-8 -355 0
-7 -355 0
-6 -355 0
-5 -355 0
-4 -355 0
-3 -355 0
-2 -355 0
359 163 -360 0
360 -359 0
360 -163 0
358 -359 -65 0
65 359 0
359 -358 0
358 47 46 45 44 43 42 41 40 39 38 37 36 35 34 33 32 31 30 29 28 27 26 25 24 23 22 21 20 19 18 17 16 15 14 13 12 11 10 9 8 7 6 5 4 3 2 0
-47 -358 0
-46 -358 0
-45 -358 0
-44 -358 0
-43 -358 0
-42 -358 0
-41 -358 0
-40 -358 0
-39 -358 0
-38 -358 0
-37 -358 0
-36 -358 0
-35 -358 0
-34 -358 0
-33 -358 0
-32 -358 0
-31 -358 0
-30 -358 0
-29 -358 0
-28 -358 0
-27 -358 0
-26 -358 0
-25 -358 0
-24 -358 0
-23 -358 0
-22 -358 0
-21 -358 0
-20 -358 0
-19 -358 0
-18 -358 0
-17 -358 0
-16 -358 0
-15 -358 0
-14 -358 0
-13 -358 0
-12 -358 0
-11 -358 0
-10 -358 0
-9 -358 0
-8 -358 0
-7 -358 0
-6 -358 0
-5 -358 0
-4 -358 0
-3 -358 0
-2 -358 0
362 162 -363 0
363 -362 0
363 -162 0
361 -362 -64 0
64 362 0
362 -361 0
361 47 46 45 44 43 42 41 40 39 38 37 36 35 34 33 32 31 30 29 28 27 26 25 24 23 22 21 20 19 18 17 16 15 14 13 12 11 10 9 8 7 6 5 4 3 2 0
-47 -361 0
-46 -361 0
-45 -361 0
-44 -361 0
-43 -361 0
-42 -361 0
-41 -361 0
-40 -361 0
-39 -361 0
-38 -361 0
-37 -361 0
-36 -361 0
-35 -361 0
-34 -361 0
-33 -361 0
-32 -361 0
-31 -361 0
-30 -361 0
-29 -361 0
-28 -361 0
-27 -361 0
-26 -361 0
-25 -361 0
-24 -361 0
-23 -361 0
-22 -361 0
-21 -361 0
-20 -361 0
-19 -361 0
-18 -361 0
-17 -361 0
-16 -361 0
-15 -361 0
-14 -361 0
-13 -361 0
-12 -361 0
-11 -361 0
-10 -361 0
-9 -361 0
-8 -361 0
-7 -361 0
-6 -361 0
-5 -361 0
-4 -361 0
-3 -361 0
-2 -361 0
365 161 -366 0
366 -365 0
366 -161 0
364 -365 -63 0
63 365 0
365 -364 0
364 47 46 45 44 43 42 41 40 39 38 37 36 35 34 33 32 31 30 29 28 27 26 25 24 23 22 21 20 19 18 17 16 15 14 13 12 11 10 9 8 7 6 5 4 3 2 0
-47 -364 0
-46 -364 0
-45 -364 0
-44 -364 0
-43 -364 0
-42 -364 0
-41 -364 0
-40 -364 0
-39 -364 0
-38 -364 0
-37 -364 0
-36 -364 0
-35 -364 0
-34 -364 0
-33 -364 0
-32 -364 0
-31 -364 0
-30 -364 0
-29 -364 0
-28 -364 0
-27 -364 0
-26 -364 0
-25 -364 0
-24 -364 0
-23 -364 0
-22 -364 0
-21 -364 0
-20 -364 0
-19 -364 0
-18 -364 0
-17 -364 0
-16 -364 0
-15 -364 0
-14 -364 0
-13 -364 0
-12 -364 0
-11 -364 0
-10 -364 0
-9 -364 0
-8 -364 0
-7 -364 0
-6 -364 0
-5 -364 0
-4 -364 0
-3 -364 0
-2 -364 0
368 160 -369 0
369 -368 0
369 -160 0
367 -368 -62 0
62 368 0
368 -367 0
367 47 46 45 44 43 42 41 40 39 38 37 36 35 34 33 32 31 30 29 28 27 26 25 24 23 22 21 20 19 18 17 16 15 14 13 12 11 10 9 8 7 6 5 4 3 2 0
-47 -367 0
-46 -367 0
-45 -367 0
-44 -367 0
-43 -367 0
-42 -367 0
-41 -367 0
-40 -367 0
-39 -367 0
-38 -367 0
-37 -367 0
-36 -367 0
-35 -367 0
-34 -367 0
-33 -367 0
-32 -367 0
-31 -367 0
-30 -367 0
-29 -367 0
-28 -367 0
-27 -367 0
-26 -367 0
-25 -367 0
-24 -367 0
-23 -367 0
-22 -367 0
-21 -367 0
-20 -367 0
-19 -367 0
-18 -367 0
-17 -367 0
-16 -367 0
-15 -367 0
-14 -367 0
-13 -367 0
-12 -367 0
-11 -367 0
-10 -367 0
-9 -367 0
-8 -367 0
-7 -367 0
-6 -367 0
-5 -367 0
-4 -367 0
-3 -367 0
-2 -367 0
371 159 -372 0
372 -371 0
372 -159 0
370 -371 -61 0
61 371 0
371 -370 0
370 47 46 45 44 43 42 41 40 39 38 37 36 35 34 33 32 31 30 29 28 27 26 25 24 23 22 21 20 19 18 17 16 15 14 13 12 11 10 9 8 7 6 5 4 3 2 0
-47 -370 0
-46 -370 0
-45 -370 0
-44 -370 0
-43 -370 0
-42 -370 0
-41 -370 0
-40 -370 0
-39 -370 0
-38 -370 0
-37 -370 0
-36 -370 0
-35 -370 0
-34 -370 0
-33 -370 0
-32 -370 0
-31 -370 0
-30 -370 0
-29 -370 0
-28 -370 0
-27 -370 0
-26 -370 0
-25 -370 0
-24 -370 0
-23 -370 0
-22 -370 0
-21 -370 0
-20 -370 0
-19 -370 0
-18 -370 0
-17 -370 0
-16 -370 0
-15 -370 0
-14 -370 0
-13 -370 0
-12 -370 0
-11 -370 0
-10 -370 0
-9 -370 0
-8 -370 0
-7 -370 0
-6 -370 0
-5 -370 0
-4 -370 0
-3 -370 0
-2 -370 0
374 158 -375 0
375 -374 0
375 -158 0
373 -374 -60 0
60 374 0
374 -373 0
373 47 46 45 44 43 42 41 40 39 38 37 36 35 34 33 32 31 30 29 28 27 26 25 24 23 22 21 20 19 18 17 16 15 14 13 12 11 10 9 8 7 6 5 4 3 2 0
-47 -373 0
-46 -373 0
-45 -373 0
-44 -373 0
-43 -373 0
-42 -373 0
-41 -373 0
-40 -373 0
-39 -373 0
-38 -373 0
-37 -373 0
-36 -373 0
-35 -373 0
-34 -373 0
-33 -373 0
-32 -373 0
-31 -373 0
-30 -373 0
-29 -373 0
-28 -373 0
-27 -373 0
-26 -373 0
-25 -373 0
-24 -373 0
-23 -373 0
-22 -373 0
-21 -373 0
-20 -373 0
-19 -373 0
-18 -373 0
-17 -373 0
-16 -373 0
-15 -373 0
-14 -373 0
-13 -373 0
-12 -373 0
-11 -373 0
-10 -373 0
-9 -373 0
-8 -373 0
-7 -373 0
-6 -373 0
-5 -373 0
-4 -373 0
-3 -373 0
-2 -373 0
377 157 -378 0
378 -377 0
378 -157 0
376 -377 -59 0
59 377 0
377 -376 0
376 47 46 45 44 43 42 41 40 39 38 37 36 35 34 33 32 31 30 29 28 27 26 25 24 23 22 21 20 19 18 17 16 15 14 13 12 11 10 9 8 7 6 5 4 3 2 0
-47 -376 0
-46 -376 0
-45 -376 0
-44 -376 0
-43 -376 0
-42 -376 0
-41 -376 0
-40 -376 0
-39 -376 0
-38 -376 0
-37 -376 0
-36 -376 0
-35 -376 0
-34 -376 0
-33 -376 0
-32 -376 0
-31 -376 0
-30 -376 0
-29 -376 0
-28 -376 0
-27 -376 0
-26 -376 0
-25 -376 0
-24 -376 0
-23 -376 0
-22 -376 0
-21 -376 0
-20 -376 0
-19 -376 0
-18 -376 0
-17 -376 0
-16 -376 0
-15 -376 0
-14 -376 0
-13 -376 0
-12 -376 0
-11 -376 0
-10 -376 0
-9 -376 0
-8 -376 0
-7 -376 0
-6 -376 0
-5 -376 0
-4 -376 0
-3 -376 0
-2 -376 0
380 156 -381 0
381 -380 0
381 -156 0
379 -380 -58 0
58 380 0
380 -379 0
379 47 46 45 44 43 42 41 40 39 38 37 36 35 34 33 32 31 30 29 28 27 26 25 24 23 22 21 20 19 18 17 16 15 14 13 12 11 10 9 8 7 6 5 4 3 2 0
-47 -379 0
-46 -379 0
-45 -379 0
-44 -379 0
-43 -379 0
-42 -379 0
-41 -379 0
-40 -379 0
-39 -379 0
-38 -379 0
-37 -379 0
-36 -379 0
-35 -379 0
-34 -379 0
-33 -379 0
-32 -379 0
-31 -379 0
-30 -379 0
-29 -379 0
-28 -379 0
-27 -379 0
-26 -379 0
-25 -379 0
-24 -379 0
-23 -379 0
-22 -379 0
-21 -379 0
-20 -379 0
-19 -379 0
-18 -379 0
-17 -379 0
-16 -379 0
-15 -379 0
-14 -379 0
-13 -379 0
-12 -379 0
-11 -379 0
-10 -379 0
-9 -379 0
-8 -379 0
-7 -379 0
-6 -379 0
-5 -379 0
-4 -379 0
-3 -379 0
-2 -379 0
383 155 -384 0
384 -383 0
384 -155 0
382 -383 -57 0
57 383 0
383 -382 0
382 47 46 45 44 43 42 41 40 39 38 37 36 35 34 33 32 31 30 29 28 27 26 25 24 23 22 21 20 19 18 17 16 15 14 13 12 11 10 9 8 7 6 5 4 3 2 0
-47 -382 0
-46 -382 0
-45 -382 0
-44 -382 0
-43 -382 0
-42 -382 0
-41 -382 0
-40 -382 0
-39 -382 0
-38 -382 0
-37 -382 0
-36 -382 0
-35 -382 0
-34 -382 0
-33 -382 0
-32 -382 0
-31 -382 0
-30 -382 0
-29 -382 0
-28 -382 0
-27 -382 0
-26 -382 0
-25 -382 0
-24 -382 0
-23 -382 0
-22 -382 0
-21 -382 0
-20 -382 0
-19 -382 0
-18 -382 0
-17 -382 0
-16 -382 0
-15 -382 0
-14 -382 0
-13 -382 0
-12 -382 0
-11 -382 0
-10 -382 0
-9 -382 0
-8 -382 0
-7 -382 0
-6 -382 0
-5 -382 0
-4 -382 0
-3 -382 0
-2 -382 0
386 154 -387 0
387 -386 0
387 -154 0
385 -386 -56 0
56 386 0
386 -385 0
385 47 46 45 44 43 42 41 40 39 38 37 36 35 34 33 32 31 30 29 28 27 26 25 24 23 22 21 20 19 18 17 16 15 14 13 12 11 10 9 8 7 6 5 4 3 2 0
-47 -385 0
-46 -385 0
-45 -385 0
-44 -385 0
-43 -385 0
-42 -385 0
-41 -385 0
-40 -385 0
-39 -385 0
-38 -385 0
-37 -385 0
-36 -385 0
-35 -385 0
-34 -385 0
-33 -385 0
-32 -385 0
-31 -385 0
-30 -385 0
-29 -385 0
-28 -385 0
-27 -385 0
-26 -385 0
-25 -385 0
-24 -385 0
-23 -385 0
-22 -385 0
-21 -385 0
-20 -385 0
-19 -385 0
-18 -385 0
-17 -385 0
-16 -385 0
-15 -385 0
-14 -385 0
-13 -385 0
-12 -385 0
-11 -385 0
-10 -385 0
-9 -385 0
-8 -385 0
-7 -385 0
-6 -385 0
-5 -385 0
-4 -385 0
-3 -385 0
-2 -385 0
389 153 -390 0
390 -389 0
390 -153 0
388 -389 -55 0
55 389 0
389 -388 0
388 47 46 45 44 43 42 41 40 39 38 37 36 35 34 33 32 31 30 29 28 27 26 25 24 23 22 21 20 19 18 17 16 15 14 13 12 11 10 9 8 7 6 5 4 3 2 0
-47 -388 0
-46 -388 0
-45 -388 0
-44 -388 0
-43 -388 0
-42 -388 0
-41 -388 0
-40 -388 0
-39 -388 0
-38 -388 0
-37 -388 0
-36 -388 0
-35 -388 0
-34 -388 0
-33 -388 0
-32 -388 0
-31 -388 0
-30 -388 0
-29 -388 0
-28 -388 0
-27 -388 0
-26 -388 0
-25 -388 0
-24 -388 0
-23 -388 0
-22 -388 0
-21 -388 0
-20 -388 0
-19 -388 0
-18 -388 0
-17 -388 0
-16 -388 0
-15 -388 0
-14 -388 0
-13 -388 0
-12 -388 0
-11 -388 0
-10 -388 0
-9 -388 0
-8 -388 0
-7 -388 0
-6 -388 0
-5 -388 0
-4 -388 0
-3 -388 0
-2 -388 0
392 152 -393 0
393 -392 0
393 -152 0
391 -392 -54 0
54 392 0
392 -391 0
391 47 46 45 44 43 42 41 40 39 38 37 36 35 34 33 32 31 30 29 28 27 26 25 24 23 22 21 20 19 18 17 16 15 14 13 12 11 10 9 8 7 6 5 4 3 2 0
-47 -391 0
-46 -391 0
-45 -391 0
-44 -391 0
-43 -391 0
-42 -391 0
-41 -391 0
-40 -391 0
-39 -391 0
-38 -391 0
-37 -391 0
-36 -391 0
-35 -391 0
-34 -391 0
-33 -391 0
-32 -391 0
-31 -391 0
-30 -391 0
-29 -391 0
-28 -391 0
-27 -391 0
-26 -391 0
-25 -391 0
-24 -391 0
-23 -391 0
-22 -391 0
-21 -391 0
-20 -391 0
-19 -391 0
-18 -391 0
-17 -391 0
-16 -391 0
-15 -391 0
-14 -391 0
-13 -391 0
-12 -391 0
-11 -391 0
-10 -391 0
-9 -391 0
-8 -391 0
-7 -391 0
-6 -391 0
-5 -391 0
-4 -391 0
-3 -391 0
-2 -391 0
395 151 -396 0
396 -395 0
396 -151 0
394 -395 -53 0
53 395 0
395 -394 0
394 47 46 45 44 43 42 41 40 39 38 37 36 35 34 33 32 31 30 29 28 27 26 25 24 23 22 21 20 19 18 17 16 15 14 13 12 11 10 9 8 7 6 5 4 3 2 0
-47 -394 0
-46 -394 0
-45 -394 0
-44 -394 0
-43 -394 0
-42 -394 0
-41 -394 0
-40 -394 0
-39 -394 0
-38 -394 0
-37 -394 0
-36 -394 0
-35 -394 0
-34 -394 0
-33 -394 0
-32 -394 0
-31 -394 0
-30 -394 0
-29 -394 0
-28 -394 0
-27 -394 0
-26 -394 0
-25 -394 0
-24 -394 0
-23 -394 0
-22 -394 0
-21 -394 0
-20 -394 0
-19 -394 0
-18 -394 0
-17 -394 0
-16 -394 0
-15 -394 0
-14 -394 0
-13 -394 0
-12 -394 0
-11 -394 0
-10 -394 0
-9 -394 0
-8 -394 0
-7 -394 0
-6 -394 0
-5 -394 0
-4 -394 0
-3 -394 0
-2 -394 0
398 150 -399 0
399 -398 0
399 -150 0
397 -398 -52 0
52 398 0
398 -397 0
397 47 46 45 44 43 42 41 40 39 38 37 36 35 34 33 32 31 30 29 28 27 26 25 24 23 22 21 20 19 18 17 16 15 14 13 12 11 10 9 8 7 6 5 4 3 2 0
-47 -397 0
-46 -397 0
-45 -397 0
-44 -397 0
-43 -397 0
-42 -397 0
-41 -397 0
-40 -397 0
-39 -397 0
-38 -397 0
-37 -397 0
-36 -397 0
-35 -397 0
-34 -397 0
-33 -397 0
-32 -397 0
-31 -397 0
-30 -397 0
-29 -397 0
-28 -397 0
-27 -397 0
-26 -397 0
-25 -397 0
-24 -397 0
-23 -397 0
-22 -397 0
-21 -397 0
-20 -397 0
-19 -397 0
-18 -397 0
-17 -397 0
-16 -397 0
-15 -397 0
-14 -397 0
-13 -397 0
-12 -397 0
-11 -397 0
-10 -397 0
-9 -397 0
-8 -397 0
-7 -397 0
-6 -397 0
-5 -397 0
-4 -397 0
-3 -397 0
-2 -397 0
401 149 -402 0
402 -401 0
402 -149 0
400 -401 -51 0
51 401 0
401 -400 0
400 47 46 45 44 43 42 41 40 39 38 37 36 35 34 33 32 31 30 29 28 27 26 25 24 23 22 21 20 19 18 17 16 15 14 13 12 11 10 9 8 7 6 5 4 3 2 0
-47 -400 0
-46 -400 0
-45 -400 0
-44 -400 0
-43 -400 0
-42 -400 0
-41 -400 0
-40 -400 0
-39 -400 0
-38 -400 0
-37 -400 0
-36 -400 0
-35 -400 0
-34 -400 0
-33 -400 0
-32 -400 0
-31 -400 0
-30 -400 0
-29 -400 0
-28 -400 0
-27 -400 0
-26 -400 0
-25 -400 0
-24 -400 0
-23 -400 0
-22 -400 0
-21 -400 0
-20 -400 0
-19 -400 0
-18 -400 0
-17 -400 0
-16 -400 0
-15 -400 0
-14 -400 0
-13 -400 0
-12 -400 0
-11 -400 0
-10 -400 0
-9 -400 0
-8 -400 0
-7 -400 0
-6 -400 0
-5 -400 0
-4 -400 0
-3 -400 0
-2 -400 0
404 148 -405 0
405 -404 0
405 -148 0
403 -404 -50 0
50 404 0
404 -403 0
403 47 46 45 44 43 42 41 40 39 38 37 36 35 34 33 32 31 30 29 28 27 26 25 24 23 22 21 20 19 18 17 16 15 14 13 12 11 10 9 8 7 6 5 4 3 2 0
-47 -403 0
-46 -403 0
-45 -403 0
-44 -403 0
-43 -403 0
-42 -403 0
-41 -403 0
-40 -403 0
-39 -403 0
-38 -403 0
-37 -403 0
-36 -403 0
-35 -403 0
-34 -403 0
-33 -403 0
-32 -403 0
-31 -403 0
-30 -403 0
-29 -403 0
-28 -403 0
-27 -403 0
-26 -403 0
-25 -403 0
-24 -403 0
-23 -403 0
-22 -403 0
-21 -403 0
-20 -403 0
-19 -403 0
-18 -403 0
-17 -403 0
-16 -403 0
-15 -403 0
-14 -403 0
-13 -403 0
-12 -403 0
-11 -403 0
-10 -403 0
-9 -403 0
-8 -403 0
-7 -403 0
-6 -403 0
-5 -403 0
-4 -403 0
-3 -403 0
-2 -403 0
407 147 -408 0
408 -407 0
408 -147 0
406 -407 -49 0
49 407 0
407 -406 0
406 47 46 45 44 43 42 41 40 39 38 37 36 35 34 33 32 31 30 29 28 27 26 25 24 23 22 21 20 19 18 17 16 15 14 13 12 11 10 9 8 7 6 5 4 3 2 0
-47 -406 0
-46 -406 0
-45 -406 0
-44 -406 0
-43 -406 0
-42 -406 0
-41 -406 0
-40 -406 0
-39 -406 0
-38 -406 0
-37 -406 0
-36 -406 0
-35 -406 0
-34 -406 0
-33 -406 0
-32 -406 0
-31 -406 0
-30 -406 0
-29 -406 0
-28 -406 0
-27 -406 0
-26 -406 0
-25 -406 0
-24 -406 0
-23 -406 0
-22 -406 0
-21 -406 0
-20 -406 0
-19 -406 0
-18 -406 0
-17 -406 0
-16 -406 0
-15 -406 0
-14 -406 0
-13 -406 0
-12 -406 0
-11 -406 0
-10 -406 0
-9 -406 0
-8 -406 0
-7 -406 0
-6 -406 0
-5 -406 0
-4 -406 0
-3 -406 0
-2 -406 0
410 146 -411 0
411 -410 0
411 -146 0
409 -410 -48 0
48 410 0
410 -409 0
409 47 46 45 44 43 42 41 40 39 38 37 36 35 34 33 32 31 30 29 28 27 26 25 24 23 22 21 20 19 18 17 16 15 14 13 12 11 10 9 8 7 6 5 4 3 2 0
-47 -409 0
-46 -409 0
-45 -409 0
-44 -409 0
-43 -409 0
-42 -409 0
-41 -409 0
-40 -409 0
-39 -409 0
-38 -409 0
-37 -409 0
-36 -409 0
-35 -409 0
-34 -409 0
-33 -409 0
-32 -409 0
-31 -409 0
-30 -409 0
-29 -409 0
-28 -409 0
-27 -409 0
-26 -409 0
-25 -409 0
-24 -409 0
-23 -409 0
-22 -409 0
-21 -409 0
-20 -409 0
-19 -409 0
-18 -409 0
-17 -409 0
-16 -409 0
-15 -409 0
-14 -409 0
-13 -409 0
-12 -409 0
-11 -409 0
-10 -409 0
-9 -409 0
-8 -409 0
-7 -409 0
-6 -409 0
-5 -409 0
-4 -409 0
-3 -409 0
-2 -409 0
412 144 139 -413 0
413 -412 0
413 -144 0
413 -139 0
168 169 171 -412 -166 -167 -170 0
166 412 0
167 412 0
412 -168 0
412 -169 0
170 412 0
412 -171 0
414 143 138 -415 0
415 -414 0
415 -143 0
415 -138 0
166 167 169 171 -414 -168 -170 0
414 -166 0
414 -167 0
168 414 0
414 -169 0
170 414 0
414 -171 0
416 143 134 -417 0
417 -416 0
417 -143 0
417 -134 0
167 169 171 -416 -166 -168 -170 0
166 416 0
416 -167 0
168 416 0
416 -169 0
170 416 0
416 -171 0
418 142 137 -419 0
419 -418 0
419 -142 0
419 -137 0
166 169 171 -418 -167 -168 -170 0
418 -166 0
167 418 0
168 418 0
418 -169 0
170 418 0
418 -171 0
420 142 133 -421 0
421 -420 0
421 -142 0
421 -133 0
169 171 -420 -166 -167 -168 -170 0
166 420 0
167 420 0
168 420 0
420 -169 0
170 420 0
420 -171 0
422 142 130 -423 0
423 -422 0
423 -142 0
423 -130 0
166 167 168 171 -422 -169 -170 0
422 -166 0
422 -167 0
422 -168 0
169 422 0
170 422 0
422 -171 0
424 141 136 -425 0
425 -424 0
425 -141 0
425 -136 0
167 168 171 -424 -166 -169 -170 0
166 424 0
424 -167 0
424 -168 0
169 424 0
170 424 0
424 -171 0
426 141 132 -427 0
427 -426 0
427 -141 0
427 -132 0
166 168 171 -426 -167 -169 -170 0
426 -166 0
167 426 0
426 -168 0
169 426 0
170 426 0
426 -171 0
428 141 129 -429 0
429 -428 0
429 -141 0
429 -129 0
168 171 -428 -166 -167 -169 -170 0
166 428 0
167 428 0
428 -168 0
169 428 0
170 428 0
428 -171 0
430 140 135 -431 0
431 -430 0
431 -140 0
431 -135 0
166 167 171 -430 -168 -169 -170 0
430 -166 0
430 -167 0
168 430 0
169 430 0
170 430 0
430 -171 0
432 140 131 -433 0
433 -432 0
433 -140 0
433 -131 0
167 171 -432 -166 -168 -169 -170 0
166 432 0
432 -167 0
168 432 0
169 432 0
170 432 0
432 -171 0
434 140 128 -435 0
435 -434 0
435 -140 0
435 -128 0
166 171 -434 -167 -168 -169 -170 0
434 -166 0
167 434 0
168 434 0
169 434 0
170 434 0
434 -171 0
436 140 127 -437 0
437 -436 0
437 -140 0
437 -127 0
171 -436 -166 -167 -168 -169 -170 0
166 436 0
167 436 0
168 436 0
169 436 0
170 436 0
436 -171 0
438 138 134 -439 0
439 -438 0
439 -138 0
439 -134 0
166 167 168 169 170 -438 -171 0
438 -166 0
438 -167 0
438 -168 0
438 -169 0
438 -170 0
171 438 0
440 137 133 -441 0
441 -440 0
441 -137 0
441 -133 0
167 168 169 170 -440 -166 -171 0
166 440 0
440 -167 0
440 -168 0
440 -169 0
440 -170 0
171 440 0
442 137 130 -443 0
443 -442 0
443 -137 0
443 -130 0
166 168 169 170 -442 -167 -171 0
442 -166 0
167 442 0
442 -168 0
442 -169 0
442 -170 0
171 442 0
444 136 132 -445 0
445 -444 0
445 -136 0
445 -132 0
168 169 170 -444 -166 -167 -171 0
166 444 0
167 444 0
444 -168 0
444 -169 0
444 -170 0
171 444 0
446 136 129 -447 0
447 -446 0
447 -136 0
447 -129 0
166 167 169 170 -446 -168 -171 0
446 -166 0
446 -167 0
168 446 0
446 -169 0
446 -170 0
171 446 0
448 135 131 -449 0
449 -448 0
449 -135 0
449 -131 0
167 169 170 -448 -166 -168 -171 0
166 448 0
448 -167 0
168 448 0
448 -169 0
448 -170 0
171 448 0
450 135 128 -451 0
451 -450 0
451 -135 0
451 -128 0
166 169 170 -450 -167 -168 -171 0
450 -166 0
167 450 0
168 450 0
450 -169 0
450 -170 0
171 450 0
452 135 127 -453 0
453 -452 0
453 -135 0
453 -127 0
169 170 -452 -166 -167 -168 -171 0
166 452 0
167 452 0
168 452 0
452 -169 0
452 -170 0
171 452 0
454 133 130 -455 0
455 -454 0
455 -133 0
455 -130 0
166 167 168 170 -454 -169 -171 0
454 -166 0
454 -167 0
454 -168 0
169 454 0
454 -170 0
171 454 0
456 132 129 -457 0
457 -456 0
457 -132 0
457 -129 0
167 168 170 -456 -166 -169 -171 0
166 456 0
456 -167 0
456 -168 0
169 456 0
456 -170 0
171 456 0
458 131 128 -459 0
459 -458 0
459 -131 0
459 -128 0
166 168 170 -458 -167 -169 -171 0
458 -166 0
167 458 0
458 -168 0
169 458 0
458 -170 0
171 458 0
460 131 127 -461 0
461 -460 0
461 -131 0
461 -127 0
168 170 -460 -166 -167 -169 -171 0
166 460 0
167 460 0
460 -168 0
169 460 0
460 -170 0
171 460 0
462 128 127 -463 0
463 -462 0
463 -128 0
463 -127 0
166 167 170 -462 -168 -169 -171 0
462 -166 0
462 -167 0
168 462 0
169 462 0
462 -170 0
171 462 0
464 145 -465 0
465 -464 0
465 -145 0
167 170 -464 -166 -168 -169 -171 0
166 464 0
464 -167 0
168 464 0
169 464 0
464 -170 0
171 464 0
466 144 -467 0
467 -466 0
467 -144 0
166 170 -466 -167 -168 -169 -171 0
466 -166 0
167 466 0
168 466 0
169 466 0
466 -170 0
171 466 0
468 143 -469 0
469 -468 0
469 -143 0
170 -468 -166 -167 -168 -169 -171 0
166 468 0
167 468 0
168 468 0
169 468 0
468 -170 0
171 468 0
470 142 -471 0
471 -470 0
471 -142 0
166 167 168 169 -470 -170 -171 0
470 -166 0
470 -167 0
470 -168 0
470 -169 0
170 470 0
171 470 0
472 141 -473 0
473 -472 0
473 -141 0
167 168 169 -472 -166 -170 -171 0
166 472 0
472 -167 0
472 -168 0
472 -169 0
170 472 0
171 472 0
474 140 -475 0
475 -474 0
475 -140 0
166 168 169 -474 -167 -170 -171 0
474 -166 0
167 474 0
474 -168 0
474 -169 0
170 474 0
171 474 0
476 139 -477 0
477 -476 0
477 -139 0
168 169 -476 -166 -167 -170 -171 0
166 476 0
167 476 0
476 -168 0
476 -169 0
170 476 0
171 476 0
478 138 -479 0
479 -478 0
479 -138 0
166 167 169 -478 -168 -170 -171 0
478 -166 0
478 -167 0
168 478 0
478 -169 0
170 478 0
171 478 0
480 137 -481 0
481 -480 0
481 -137 0
167 169 -480 -166 -168 -170 -171 0
166 480 0
480 -167 0
168 480 0
480 -169 0
170 480 0
171 480 0
482 136 -483 0
483 -482 0
483 -136 0
166 169 -482 -167 -168 -170 -171 0
482 -166 0
167 482 0
168 482 0
482 -169 0
170 482 0
171 482 0
484 135 -485 0
485 -484 0
485 -135 0
169 -484 -166 -167 -168 -170 -171 0
166 484 0
167 484 0
168 484 0
484 -169 0
170 484 0
171 484 0
486 134 -487 0
487 -486 0
487 -134 0
166 167 168 -486 -169 -170 -171 0
486 -166 0
486 -167 0
486 -168 0
169 486 0
170 486 0
171 486 0
488 133 -489 0
489 -488 0
489 -133 0
167 168 -488 -166 -169 -170 -171 0
166 488 0
488 -167 0
488 -168 0
169 488 0
170 488 0
171 488 0
490 132 -491 0
491 -490 0
491 -132 0
166 168 -490 -167 -169 -170 -171 0
490 -166 0
167 490 0
490 -168 0
169 490 0
170 490 0
171 490 0
492 131 -493 0
493 -492 0
493 -131 0
168 -492 -166 -167 -169 -170 -171 0
166 492 0
167 492 0
492 -168 0
169 492 0
170 492 0
171 492 0
494 130 -495 0
495 -494 0
495 -130 0
166 167 -494 -168 -169 -170 -171 0
494 -166 0
494 -167 0
168 494 0
169 494 0
170 494 0
171 494 0
496 129 -497 0
497 -496 0
497 -129 0
167 -496 -166 -168 -169 -170 -171 0
166 496 0
496 -167 0
168 496 0
169 496 0
170 496 0
171 496 0
498 128 -499 0
499 -498 0
499 -128 0
166 -498 -167 -168 -169 -170 -171 0
498 -166 0
167 498 0
168 498 0
169 498 0
170 498 0
171 498 0
500 127 -501 0
501 -500 0
501 -127 0
-500 -166 -167 -168 -169 -170 -171 0
166 500 0
167 500 0
168 500 0
169 500 0
170 500 0
171 500 0
-502 -145 -164 0
145 502 0
164 502 0
-503 -144 -163 0
144 503 0
163 503 0
-504 -143 -162 0
143 504 0
162 504 0
-505 -142 -161 0
142 505 0
161 505 0
-506 -141 -160 0
141 506 0
160 506 0
-507 -140 -159 0
140 507 0
159 507 0
-508 -139 -158 0
139 508 0
158 508 0
-509 -138 -157 0
138 509 0
157 509 0
-510 -137 -156 0
137 510 0
156 510 0
-511 -136 -155 0
136 511 0
155 511 0
-512 -135 -154 0
135 512 0
154 512 0
-513 -134 -153 0
134 513 0
153 513 0
-514 -133 -152 0
133 514 0
152 514 0
-515 -132 -151 0
132 515 0
151 515 0
-516 -131 -150 0
131 516 0
150 516 0
-517 -130 -149 0
130 517 0
149 517 0
-518 -129 -148 0
129 518 0
148 518 0
-519 -128 -147 0
128 519 0
147 519 0
-520 -127 -146 0
127 520 0
146 520 0
-523 -96 -126 0
96 523 0
126 523 0
-524 -95 -125 0
95 524 0
125 524 0
-525 -94 -124 0
94 525 0
124 525 0
-526 -93 -123 0
93 526 0
123 526 0
-527 -92 -122 0
92 527 0
122 527 0
-528 -91 -121 0
91 528 0
121 528 0
-529 -90 -120 0
90 529 0
120 529 0
-530 -89 -119 0
89 530 0
119 530 0
-531 -88 -118 0
88 531 0
118 531 0
-532 -87 -117 0
87 532 0
117 532 0
-533 -86 -116 0
86 533 0
116 533 0
-534 -85 -115 0
85 534 0
115 534 0
-535 -84 -114 0
84 535 0
114 535 0
-536 -83 -113 0
83 536 0
113 536 0
-537 -82 -112 0
82 537 0
112 537 0
-538 -81 -111 0
81 538 0
111 538 0
-539 -80 -110 0
80 539 0
110 539 0
-540 -79 -109 0
79 540 0
109 540 0
-541 -78 -108 0
78 541 0
108 541 0
-542 -77 -107 0
77 542 0
107 542 0
-543 -76 -106 0
76 543 0
106 543 0
-544 -75 -105 0
75 544 0
105 544 0
-545 -74 -104 0
74 545 0
104 545 0
-546 -73 -103 0
73 546 0
103 546 0
-547 -72 -102 0
72 547 0
102 547 0
-548 -71 -101 0
71 548 0
101 548 0
-549 -70 -100 0
70 549 0
100 549 0
-550 -69 -99 0
69 550 0
99 550 0
-551 -68 -98 0
68 551 0
98 551 0
-552 -67 -97 0
67 552 0
97 552 0
